(declare-fun b114 () (_ FloatingPoint 11 53))
(declare-fun b585 () (_ FloatingPoint 11 53))
(declare-fun b310 () (_ FloatingPoint 11 53))
(declare-fun b136 () (_ FloatingPoint 11 53))
(declare-fun b102 () (_ FloatingPoint 11 53))
(declare-fun b558 () (_ FloatingPoint 11 53))
(declare-fun b547 () (_ FloatingPoint 11 53))
(declare-fun b148 () (_ FloatingPoint 11 53))
(declare-fun b623 () (_ FloatingPoint 11 53))
(declare-fun b596 () (_ FloatingPoint 11 53))
(declare-fun b634 () (_ FloatingPoint 11 53))
(declare-fun b145 () (_ FloatingPoint 11 53))
(assert (let ((.def_11 (fp.div RNE b310 b145)))
(let ((.def_13 (fp.mul RNE .def_11 b136)))
(let ((.def_14 (fp.mul RNE .def_11 .def_11)))
(let ((.def_15 (fp.neg .def_14)))
(let ((.def_16 (fp.add RNE b310 .def_15)))
(let ((.def_17 (fp.div RNE .def_16 .def_13)))
(let ((.def_18 (fp.add RNE .def_11 .def_17)))
(let ((.def_19 (fp.mul RNE b136 .def_18)))
(let ((.def_20 (fp.mul RNE .def_18 .def_18)))
(let ((.def_21 (fp.neg .def_20)))
(let ((.def_22 (fp.add RNE b310 .def_21)))
(let ((.def_23 (fp.div RNE .def_22 .def_19)))
(let ((.def_24 (fp.add RNE .def_18 .def_23)))
(let ((.def_25 (fp.mul RNE .def_24 .def_24)))
(let ((.def_26 (fp.neg .def_25)))
(let ((.def_27 (fp.add RNE b310 .def_26)))
(let ((.def_136 (fp.neg .def_27)))
(let ((.def_137 (= b547 .def_136)))
(let ((.def_133 (fp.leq b102 .def_27)))
(let ((.def_134 (not .def_133)))
(let ((.def_130 (fp.leq b558 b148)))
(let ((.def_131 (not .def_130)))
(let ((.def_126 (fp.neg .def_22)))
(let ((.def_127 (= b558 .def_126)))
(let ((.def_123 (fp.leq b102 .def_22)))
(let ((.def_124 (not .def_123)))
(let ((.def_35 (fp.div RNE b102 b145)))
(let ((.def_36 (fp.mul RNE b136 .def_35)))
(let ((.def_37 (fp.mul RNE .def_35 .def_35)))
(let ((.def_38 (fp.neg .def_37)))
(let ((.def_39 (fp.add RNE b102 .def_38)))
(let ((.def_40 (fp.div RNE .def_39 .def_36)))
(let ((.def_41 (fp.add RNE .def_35 .def_40)))
(let ((.def_42 (fp.mul RNE b136 .def_41)))
(let ((.def_43 (fp.mul RNE .def_41 .def_41)))
(let ((.def_44 (fp.neg .def_43)))
(let ((.def_45 (fp.add RNE b102 .def_44)))
(let ((.def_46 (fp.div RNE .def_45 .def_42)))
(let ((.def_47 (fp.add RNE .def_41 .def_46)))
(let ((.def_48 (fp.mul RNE .def_47 .def_47)))
(let ((.def_49 (fp.neg .def_48)))
(let ((.def_50 (fp.add RNE b102 .def_49)))
(let ((.def_119 (fp.neg .def_50)))
(let ((.def_120 (= b585 .def_119)))
(let ((.def_116 (fp.leq b102 .def_50)))
(let ((.def_117 (not .def_116)))
(let ((.def_113 (fp.leq b596 b148)))
(let ((.def_114 (not .def_113)))
(let ((.def_109 (fp.neg .def_45)))
(let ((.def_110 (= b596 .def_109)))
(let ((.def_106 (fp.leq b102 .def_45)))
(let ((.def_107 (not .def_106)))
(let ((.def_58 (fp.div RNE b114 b145)))
(let ((.def_59 (fp.mul RNE b136 .def_58)))
(let ((.def_60 (fp.mul RNE .def_58 .def_58)))
(let ((.def_61 (fp.neg .def_60)))
(let ((.def_62 (fp.add RNE b114 .def_61)))
(let ((.def_63 (fp.div RNE .def_62 .def_59)))
(let ((.def_64 (fp.add RNE .def_58 .def_63)))
(let ((.def_65 (fp.mul RNE b136 .def_64)))
(let ((.def_66 (fp.mul RNE .def_64 .def_64)))
(let ((.def_67 (fp.neg .def_66)))
(let ((.def_68 (fp.add RNE b114 .def_67)))
(let ((.def_69 (fp.div RNE .def_68 .def_65)))
(let ((.def_70 (fp.add RNE .def_64 .def_69)))
(let ((.def_71 (fp.mul RNE .def_70 .def_70)))
(let ((.def_72 (fp.neg .def_71)))
(let ((.def_73 (fp.add RNE b114 .def_72)))
(let ((.def_102 (fp.neg .def_73)))
(let ((.def_103 (= b623 .def_102)))
(let ((.def_99 (fp.leq b102 .def_73)))
(let ((.def_100 (not .def_99)))
(let ((.def_96 (fp.leq b634 b148)))
(let ((.def_97 (not .def_96)))
(let ((.def_91 (fp.neg .def_68)))
(let ((.def_92 (= b634 .def_91)))
(let ((.def_88 (fp.leq b102 .def_68)))
(let ((.def_89 (not .def_88)))
(let ((.def_85 (fp.eq b310 b102)))
(let ((.def_86 (not .def_85)))
(let ((.def_82 (fp.eq b102 b114)))
(let ((.def_83 (not .def_82)))
(let ((.def_80 (fp.eq b102 b102)))
(let ((.def_81 (not .def_80)))
(let ((.def_84 (and .def_81 .def_83)))
(let ((.def_87 (and .def_84 .def_86)))
(let ((.def_90 (and .def_87 .def_89)))
(let ((.def_93 (and .def_90 .def_92)))
(let ((.def_78 (= .def_68 b634)))
(let ((.def_79 (not .def_78)))
(let ((.def_94 (and .def_79 .def_93)))
(let ((.def_98 (and .def_94 .def_97)))
(let ((.def_101 (and .def_98 .def_100)))
(let ((.def_104 (and .def_101 .def_103)))
(let ((.def_75 (= .def_73 b623)))
(let ((.def_76 (not .def_75)))
(let ((.def_105 (and .def_76 .def_104)))
(let ((.def_108 (and .def_105 .def_107)))
(let ((.def_111 (and .def_108 .def_110)))
(let ((.def_55 (= .def_45 b596)))
(let ((.def_56 (not .def_55)))
(let ((.def_112 (and .def_56 .def_111)))
(let ((.def_115 (and .def_112 .def_114)))
(let ((.def_118 (and .def_115 .def_117)))
(let ((.def_121 (and .def_118 .def_120)))
(let ((.def_52 (= .def_50 b585)))
(let ((.def_53 (not .def_52)))
(let ((.def_122 (and .def_53 .def_121)))
(let ((.def_125 (and .def_122 .def_124)))
(let ((.def_128 (and .def_125 .def_127)))
(let ((.def_32 (= .def_22 b558)))
(let ((.def_33 (not .def_32)))
(let ((.def_129 (and .def_33 .def_128)))
(let ((.def_132 (and .def_129 .def_131)))
(let ((.def_135 (and .def_132 .def_134)))
(let ((.def_138 (and .def_135 .def_137)))
(let ((.def_29 (= .def_27 b547)))
(let ((.def_30 (not .def_29)))
(let ((.def_139 (and .def_30 .def_138)))
.def_139))))))))))))))))))))))))))))))))))))))))))))))))))))))))))))))))))))))))))))))))))))))))))))))))))))))))))))))))))))))))
(check-sat)
